c Generated with `cnfgen`
c (C) 2012-2018 Massimo Lauria <lauria.massimo@gmail.com>
c https://massimolauria.net/cnfgen
c
c COMMAND LINE: cnfgen tseitin --gnd 70 5 --charge randomodd
c
p cnf 175 1120
1 2 3 4 5 0
1 2 3 -4 -5 0
1 2 -3 4 -5 0
1 2 -3 -4 5 0
1 -2 3 4 -5 0
1 -2 3 -4 5 0
1 -2 -3 4 5 0
1 -2 -3 -4 -5 0
-1 2 3 4 -5 0
-1 2 3 -4 5 0
-1 2 -3 4 5 0
-1 2 -3 -4 -5 0
-1 -2 3 4 5 0
-1 -2 3 -4 -5 0
-1 -2 -3 4 -5 0
-1 -2 -3 -4 5 0
6 7 8 9 10 0
6 7 8 -9 -10 0
6 7 -8 9 -10 0
6 7 -8 -9 10 0
6 -7 8 9 -10 0
6 -7 8 -9 10 0
6 -7 -8 9 10 0
6 -7 -8 -9 -10 0
-6 7 8 9 -10 0
-6 7 8 -9 10 0
-6 7 -8 9 10 0
-6 7 -8 -9 -10 0
-6 -7 8 9 10 0
-6 -7 8 -9 -10 0
-6 -7 -8 9 -10 0
-6 -7 -8 -9 10 0
11 12 13 14 15 0
11 12 13 -14 -15 0
11 12 -13 14 -15 0
11 12 -13 -14 15 0
11 -12 13 14 -15 0
11 -12 13 -14 15 0
11 -12 -13 14 15 0
11 -12 -13 -14 -15 0
-11 12 13 14 -15 0
-11 12 13 -14 15 0
-11 12 -13 14 15 0
-11 12 -13 -14 -15 0
-11 -12 13 14 15 0
-11 -12 13 -14 -15 0
-11 -12 -13 14 -15 0
-11 -12 -13 -14 15 0
11 16 17 18 19 0
11 16 17 -18 -19 0
11 16 -17 18 -19 0
11 16 -17 -18 19 0
11 -16 17 18 -19 0
11 -16 17 -18 19 0
11 -16 -17 18 19 0
11 -16 -17 -18 -19 0
-11 16 17 18 -19 0
-11 16 17 -18 19 0
-11 16 -17 18 19 0
-11 16 -17 -18 -19 0
-11 -16 17 18 19 0
-11 -16 17 -18 -19 0
-11 -16 -17 18 -19 0
-11 -16 -17 -18 19 0
20 21 22 23 24 0
20 21 22 -23 -24 0
20 21 -22 23 -24 0
20 21 -22 -23 24 0
20 -21 22 23 -24 0
20 -21 22 -23 24 0
20 -21 -22 23 24 0
20 -21 -22 -23 -24 0
-20 21 22 23 -24 0
-20 21 22 -23 24 0
-20 21 -22 23 24 0
-20 21 -22 -23 -24 0
-20 -21 22 23 24 0
-20 -21 22 -23 -24 0
-20 -21 -22 23 -24 0
-20 -21 -22 -23 24 0
25 26 27 28 -29 0
25 26 27 -28 29 0
25 26 -27 28 29 0
25 26 -27 -28 -29 0
25 -26 27 28 29 0
25 -26 27 -28 -29 0
25 -26 -27 28 -29 0
25 -26 -27 -28 29 0
-25 26 27 28 29 0
-25 26 27 -28 -29 0
-25 26 -27 28 -29 0
-25 26 -27 -28 29 0
-25 -26 27 28 -29 0
-25 -26 27 -28 29 0
-25 -26 -27 28 29 0
-25 -26 -27 -28 -29 0
25 30 31 32 -33 0
25 30 31 -32 33 0
25 30 -31 32 33 0
25 30 -31 -32 -33 0
25 -30 31 32 33 0
25 -30 31 -32 -33 0
25 -30 -31 32 -33 0
25 -30 -31 -32 33 0
-25 30 31 32 33 0
-25 30 31 -32 -33 0
-25 30 -31 32 -33 0
-25 30 -31 -32 33 0
-25 -30 31 32 -33 0
-25 -30 31 -32 33 0
-25 -30 -31 32 33 0
-25 -30 -31 -32 -33 0
30 34 35 36 37 0
30 34 35 -36 -37 0
30 34 -35 36 -37 0
30 34 -35 -36 37 0
30 -34 35 36 -37 0
30 -34 35 -36 37 0
30 -34 -35 36 37 0
30 -34 -35 -36 -37 0
-30 34 35 36 -37 0
-30 34 35 -36 37 0
-30 34 -35 36 37 0
-30 34 -35 -36 -37 0
-30 -34 35 36 37 0
-30 -34 35 -36 -37 0
-30 -34 -35 36 -37 0
-30 -34 -35 -36 37 0
12 38 39 40 41 0
12 38 39 -40 -41 0
12 38 -39 40 -41 0
12 38 -39 -40 41 0
12 -38 39 40 -41 0
12 -38 39 -40 41 0
12 -38 -39 40 41 0
12 -38 -39 -40 -41 0
-12 38 39 40 -41 0
-12 38 39 -40 41 0
-12 38 -39 40 41 0
-12 38 -39 -40 -41 0
-12 -38 39 40 41 0
-12 -38 39 -40 -41 0
-12 -38 -39 40 -41 0
-12 -38 -39 -40 41 0
13 16 42 43 44 0
13 16 42 -43 -44 0
13 16 -42 43 -44 0
13 16 -42 -43 44 0
13 -16 42 43 -44 0
13 -16 42 -43 44 0
13 -16 -42 43 44 0
13 -16 -42 -43 -44 0
-13 16 42 43 -44 0
-13 16 42 -43 44 0
-13 16 -42 43 44 0
-13 16 -42 -43 -44 0
-13 -16 42 43 44 0
-13 -16 42 -43 -44 0
-13 -16 -42 43 -44 0
-13 -16 -42 -43 44 0
31 45 46 47 -48 0
31 45 46 -47 48 0
31 45 -46 47 48 0
31 45 -46 -47 -48 0
31 -45 46 47 48 0
31 -45 46 -47 -48 0
31 -45 -46 47 -48 0
31 -45 -46 -47 48 0
-31 45 46 47 48 0
-31 45 46 -47 -48 0
-31 45 -46 47 -48 0
-31 45 -46 -47 48 0
-31 -45 46 47 -48 0
-31 -45 46 -47 48 0
-31 -45 -46 47 48 0
-31 -45 -46 -47 -48 0
34 49 50 51 -52 0
34 49 50 -51 52 0
34 49 -50 51 52 0
34 49 -50 -51 -52 0
34 -49 50 51 52 0
34 -49 50 -51 -52 0
34 -49 -50 51 -52 0
34 -49 -50 -51 52 0
-34 49 50 51 52 0
-34 49 50 -51 -52 0
-34 49 -50 51 -52 0
-34 49 -50 -51 52 0
-34 -49 50 51 -52 0
-34 -49 50 -51 52 0
-34 -49 -50 51 52 0
-34 -49 -50 -51 -52 0
53 54 55 56 -57 0
53 54 55 -56 57 0
53 54 -55 56 57 0
53 54 -55 -56 -57 0
53 -54 55 56 57 0
53 -54 55 -56 -57 0
53 -54 -55 56 -57 0
53 -54 -55 -56 57 0
-53 54 55 56 57 0
-53 54 55 -56 -57 0
-53 54 -55 56 -57 0
-53 54 -55 -56 57 0
-53 -54 55 56 -57 0
-53 -54 55 -56 57 0
-53 -54 -55 56 57 0
-53 -54 -55 -56 -57 0
58 59 60 61 62 0
58 59 60 -61 -62 0
58 59 -60 61 -62 0
58 59 -60 -61 62 0
58 -59 60 61 -62 0
58 -59 60 -61 62 0
58 -59 -60 61 62 0
58 -59 -60 -61 -62 0
-58 59 60 61 -62 0
-58 59 60 -61 62 0
-58 59 -60 61 62 0
-58 59 -60 -61 -62 0
-58 -59 60 61 62 0
-58 -59 60 -61 -62 0
-58 -59 -60 61 -62 0
-58 -59 -60 -61 62 0
20 53 63 64 -65 0
20 53 63 -64 65 0
20 53 -63 64 65 0
20 53 -63 -64 -65 0
20 -53 63 64 65 0
20 -53 63 -64 -65 0
20 -53 -63 64 -65 0
20 -53 -63 -64 65 0
-20 53 63 64 65 0
-20 53 63 -64 -65 0
-20 53 -63 64 -65 0
-20 53 -63 -64 65 0
-20 -53 63 64 -65 0
-20 -53 63 -64 65 0
-20 -53 -63 64 65 0
-20 -53 -63 -64 -65 0
1 35 38 66 67 0
1 35 38 -66 -67 0
1 35 -38 66 -67 0
1 35 -38 -66 67 0
1 -35 38 66 -67 0
1 -35 38 -66 67 0
1 -35 -38 66 67 0
1 -35 -38 -66 -67 0
-1 35 38 66 -67 0
-1 35 38 -66 67 0
-1 35 -38 66 67 0
-1 35 -38 -66 -67 0
-1 -35 38 66 67 0
-1 -35 38 -66 -67 0
-1 -35 -38 66 -67 0
-1 -35 -38 -66 67 0
68 69 70 71 72 0
68 69 70 -71 -72 0
68 69 -70 71 -72 0
68 69 -70 -71 72 0
68 -69 70 71 -72 0
68 -69 70 -71 72 0
68 -69 -70 71 72 0
68 -69 -70 -71 -72 0
-68 69 70 71 -72 0
-68 69 70 -71 72 0
-68 69 -70 71 72 0
-68 69 -70 -71 -72 0
-68 -69 70 71 72 0
-68 -69 70 -71 -72 0
-68 -69 -70 71 -72 0
-68 -69 -70 -71 72 0
6 49 73 74 75 0
6 49 73 -74 -75 0
6 49 -73 74 -75 0
6 49 -73 -74 75 0
6 -49 73 74 -75 0
6 -49 73 -74 75 0
6 -49 -73 74 75 0
6 -49 -73 -74 -75 0
-6 49 73 74 -75 0
-6 49 73 -74 75 0
-6 49 -73 74 75 0
-6 49 -73 -74 -75 0
-6 -49 73 74 75 0
-6 -49 73 -74 -75 0
-6 -49 -73 74 -75 0
-6 -49 -73 -74 75 0
58 76 77 78 79 0
58 76 77 -78 -79 0
58 76 -77 78 -79 0
58 76 -77 -78 79 0
58 -76 77 78 -79 0
58 -76 77 -78 79 0
58 -76 -77 78 79 0
58 -76 -77 -78 -79 0
-58 76 77 78 -79 0
-58 76 77 -78 79 0
-58 76 -77 78 79 0
-58 76 -77 -78 -79 0
-58 -76 77 78 79 0
-58 -76 77 -78 -79 0
-58 -76 -77 78 -79 0
-58 -76 -77 -78 79 0
36 80 81 82 83 0
36 80 81 -82 -83 0
36 80 -81 82 -83 0
36 80 -81 -82 83 0
36 -80 81 82 -83 0
36 -80 81 -82 83 0
36 -80 -81 82 83 0
36 -80 -81 -82 -83 0
-36 80 81 82 -83 0
-36 80 81 -82 83 0
-36 80 -81 82 83 0
-36 80 -81 -82 -83 0
-36 -80 81 82 83 0
-36 -80 81 -82 -83 0
-36 -80 -81 82 -83 0
-36 -80 -81 -82 83 0
84 85 86 87 -88 0
84 85 86 -87 88 0
84 85 -86 87 88 0
84 85 -86 -87 -88 0
84 -85 86 87 88 0
84 -85 86 -87 -88 0
84 -85 -86 87 -88 0
84 -85 -86 -87 88 0
-84 85 86 87 88 0
-84 85 86 -87 -88 0
-84 85 -86 87 -88 0
-84 85 -86 -87 88 0
-84 -85 86 87 -88 0
-84 -85 86 -87 88 0
-84 -85 -86 87 88 0
-84 -85 -86 -87 -88 0
7 89 90 91 92 0
7 89 90 -91 -92 0
7 89 -90 91 -92 0
7 89 -90 -91 92 0
7 -89 90 91 -92 0
7 -89 90 -91 92 0
7 -89 -90 91 92 0
7 -89 -90 -91 -92 0
-7 89 90 91 -92 0
-7 89 90 -91 92 0
-7 89 -90 91 92 0
-7 89 -90 -91 -92 0
-7 -89 90 91 92 0
-7 -89 90 -91 -92 0
-7 -89 -90 91 -92 0
-7 -89 -90 -91 92 0
45 93 94 95 96 0
45 93 94 -95 -96 0
45 93 -94 95 -96 0
45 93 -94 -95 96 0
45 -93 94 95 -96 0
45 -93 94 -95 96 0
45 -93 -94 95 96 0
45 -93 -94 -95 -96 0
-45 93 94 95 -96 0
-45 93 94 -95 96 0
-45 93 -94 95 96 0
-45 93 -94 -95 -96 0
-45 -93 94 95 96 0
-45 -93 94 -95 -96 0
-45 -93 -94 95 -96 0
-45 -93 -94 -95 96 0
46 93 97 98 -99 0
46 93 97 -98 99 0
46 93 -97 98 99 0
46 93 -97 -98 -99 0
46 -93 97 98 99 0
46 -93 97 -98 -99 0
46 -93 -97 98 -99 0
46 -93 -97 -98 99 0
-46 93 97 98 99 0
-46 93 97 -98 -99 0
-46 93 -97 98 -99 0
-46 93 -97 -98 99 0
-46 -93 97 98 -99 0
-46 -93 97 -98 99 0
-46 -93 -97 98 99 0
-46 -93 -97 -98 -99 0
2 80 100 101 102 0
2 80 100 -101 -102 0
2 80 -100 101 -102 0
2 80 -100 -101 102 0
2 -80 100 101 -102 0
2 -80 100 -101 102 0
2 -80 -100 101 102 0
2 -80 -100 -101 -102 0
-2 80 100 101 -102 0
-2 80 100 -101 102 0
-2 80 -100 101 102 0
-2 80 -100 -101 -102 0
-2 -80 100 101 102 0
-2 -80 100 -101 -102 0
-2 -80 -100 101 -102 0
-2 -80 -100 -101 102 0
39 89 103 104 105 0
39 89 103 -104 -105 0
39 89 -103 104 -105 0
39 89 -103 -104 105 0
39 -89 103 104 -105 0
39 -89 103 -104 105 0
39 -89 -103 104 105 0
39 -89 -103 -104 -105 0
-39 89 103 104 -105 0
-39 89 103 -104 105 0
-39 89 -103 104 105 0
-39 89 -103 -104 -105 0
-39 -89 103 104 105 0
-39 -89 103 -104 -105 0
-39 -89 -103 104 -105 0
-39 -89 -103 -104 105 0
3 14 26 106 107 0
3 14 26 -106 -107 0
3 14 -26 106 -107 0
3 14 -26 -106 107 0
3 -14 26 106 -107 0
3 -14 26 -106 107 0
3 -14 -26 106 107 0
3 -14 -26 -106 -107 0
-3 14 26 106 -107 0
-3 14 26 -106 107 0
-3 14 -26 106 107 0
-3 14 -26 -106 -107 0
-3 -14 26 106 107 0
-3 -14 26 -106 -107 0
-3 -14 -26 106 -107 0
-3 -14 -26 -106 107 0
63 97 108 109 110 0
63 97 108 -109 -110 0
63 97 -108 109 -110 0
63 97 -108 -109 110 0
63 -97 108 109 -110 0
63 -97 108 -109 110 0
63 -97 -108 109 110 0
63 -97 -108 -109 -110 0
-63 97 108 109 -110 0
-63 97 108 -109 110 0
-63 97 -108 109 110 0
-63 97 -108 -109 -110 0
-63 -97 108 109 110 0
-63 -97 108 -109 -110 0
-63 -97 -108 109 -110 0
-63 -97 -108 -109 110 0
76 106 111 112 113 0
76 106 111 -112 -113 0
76 106 -111 112 -113 0
76 106 -111 -112 113 0
76 -106 111 112 -113 0
76 -106 111 -112 113 0
76 -106 -111 112 113 0
76 -106 -111 -112 -113 0
-76 106 111 112 -113 0
-76 106 111 -112 113 0
-76 106 -111 112 113 0
-76 106 -111 -112 -113 0
-76 -106 111 112 113 0
-76 -106 111 -112 -113 0
-76 -106 -111 112 -113 0
-76 -106 -111 -112 113 0
114 115 116 117 118 0
114 115 116 -117 -118 0
114 115 -116 117 -118 0
114 115 -116 -117 118 0
114 -115 116 117 -118 0
114 -115 116 -117 118 0
114 -115 -116 117 118 0
114 -115 -116 -117 -118 0
-114 115 116 117 -118 0
-114 115 116 -117 118 0
-114 115 -116 117 118 0
-114 115 -116 -117 -118 0
-114 -115 116 117 118 0
-114 -115 116 -117 -118 0
-114 -115 -116 117 -118 0
-114 -115 -116 -117 118 0
119 120 121 122 -123 0
119 120 121 -122 123 0
119 120 -121 122 123 0
119 120 -121 -122 -123 0
119 -120 121 122 123 0
119 -120 121 -122 -123 0
119 -120 -121 122 -123 0
119 -120 -121 -122 123 0
-119 120 121 122 123 0
-119 120 121 -122 -123 0
-119 120 -121 122 -123 0
-119 120 -121 -122 123 0
-119 -120 121 122 -123 0
-119 -120 121 -122 123 0
-119 -120 -121 122 123 0
-119 -120 -121 -122 -123 0
21 68 124 125 126 0
21 68 124 -125 -126 0
21 68 -124 125 -126 0
21 68 -124 -125 126 0
21 -68 124 125 -126 0
21 -68 124 -125 126 0
21 -68 -124 125 126 0
21 -68 -124 -125 -126 0
-21 68 124 125 -126 0
-21 68 124 -125 126 0
-21 68 -124 125 126 0
-21 68 -124 -125 -126 0
-21 -68 124 125 126 0
-21 -68 124 -125 -126 0
-21 -68 -124 125 -126 0
-21 -68 -124 -125 126 0
40 42 73 127 -128 0
40 42 73 -127 128 0
40 42 -73 127 128 0
40 42 -73 -127 -128 0
40 -42 73 127 128 0
40 -42 73 -127 -128 0
40 -42 -73 127 -128 0
40 -42 -73 -127 128 0
-40 42 73 127 128 0
-40 42 73 -127 -128 0
-40 42 -73 127 -128 0
-40 42 -73 -127 128 0
-40 -42 73 127 -128 0
-40 -42 73 -127 128 0
-40 -42 -73 127 128 0
-40 -42 -73 -127 -128 0
22 124 129 130 131 0
22 124 129 -130 -131 0
22 124 -129 130 -131 0
22 124 -129 -130 131 0
22 -124 129 130 -131 0
22 -124 129 -130 131 0
22 -124 -129 130 131 0
22 -124 -129 -130 -131 0
-22 124 129 130 -131 0
-22 124 129 -130 131 0
-22 124 -129 130 131 0
-22 124 -129 -130 -131 0
-22 -124 129 130 131 0
-22 -124 129 -130 -131 0
-22 -124 -129 130 -131 0
-22 -124 -129 -130 131 0
32 119 132 133 -134 0
32 119 132 -133 134 0
32 119 -132 133 134 0
32 119 -132 -133 -134 0
32 -119 132 133 134 0
32 -119 132 -133 -134 0
32 -119 -132 133 -134 0
32 -119 -132 -133 134 0
-32 119 132 133 134 0
-32 119 132 -133 -134 0
-32 119 -132 133 -134 0
-32 119 -132 -133 134 0
-32 -119 132 133 -134 0
-32 -119 132 -133 134 0
-32 -119 -132 133 134 0
-32 -119 -132 -133 -134 0
54 100 125 135 -136 0
54 100 125 -135 136 0
54 100 -125 135 136 0
54 100 -125 -135 -136 0
54 -100 125 135 136 0
54 -100 125 -135 -136 0
54 -100 -125 135 -136 0
54 -100 -125 -135 136 0
-54 100 125 135 136 0
-54 100 125 -135 -136 0
-54 100 -125 135 -136 0
-54 100 -125 -135 136 0
-54 -100 125 135 -136 0
-54 -100 125 -135 136 0
-54 -100 -125 135 136 0
-54 -100 -125 -135 -136 0
84 90 137 138 -139 0
84 90 137 -138 139 0
84 90 -137 138 139 0
84 90 -137 -138 -139 0
84 -90 137 138 139 0
84 -90 137 -138 -139 0
84 -90 -137 138 -139 0
84 -90 -137 -138 139 0
-84 90 137 138 139 0
-84 90 137 -138 -139 0
-84 90 -137 138 -139 0
-84 90 -137 -138 139 0
-84 -90 137 138 -139 0
-84 -90 137 -138 139 0
-84 -90 -137 138 139 0
-84 -90 -137 -138 -139 0
27 126 140 141 -142 0
27 126 140 -141 142 0
27 126 -140 141 142 0
27 126 -140 -141 -142 0
27 -126 140 141 142 0
27 -126 140 -141 -142 0
27 -126 -140 141 -142 0
27 -126 -140 -141 142 0
-27 126 140 141 142 0
-27 126 140 -141 -142 0
-27 126 -140 141 -142 0
-27 126 -140 -141 142 0
-27 -126 140 141 -142 0
-27 -126 140 -141 142 0
-27 -126 -140 141 142 0
-27 -126 -140 -141 -142 0
50 140 143 144 145 0
50 140 143 -144 -145 0
50 140 -143 144 -145 0
50 140 -143 -144 145 0
50 -140 143 144 -145 0
50 -140 143 -144 145 0
50 -140 -143 144 145 0
50 -140 -143 -144 -145 0
-50 140 143 144 -145 0
-50 140 143 -144 145 0
-50 140 -143 144 145 0
-50 140 -143 -144 -145 0
-50 -140 143 144 145 0
-50 -140 143 -144 -145 0
-50 -140 -143 144 -145 0
-50 -140 -143 -144 145 0
33 43 55 59 -120 0
33 43 55 -59 120 0
33 43 -55 59 120 0
33 43 -55 -59 -120 0
33 -43 55 59 120 0
33 -43 55 -59 -120 0
33 -43 -55 59 -120 0
33 -43 -55 -59 120 0
-33 43 55 59 120 0
-33 43 55 -59 -120 0
-33 43 -55 59 -120 0
-33 43 -55 -59 120 0
-33 -43 55 59 -120 0
-33 -43 55 -59 120 0
-33 -43 -55 59 120 0
-33 -43 -55 -59 -120 0
44 47 69 146 -147 0
44 47 69 -146 147 0
44 47 -69 146 147 0
44 47 -69 -146 -147 0
44 -47 69 146 147 0
44 -47 69 -146 -147 0
44 -47 -69 146 -147 0
44 -47 -69 -146 147 0
-44 47 69 146 147 0
-44 47 69 -146 -147 0
-44 47 -69 146 -147 0
-44 47 -69 -146 147 0
-44 -47 69 146 -147 0
-44 -47 69 -146 147 0
-44 -47 -69 146 147 0
-44 -47 -69 -146 -147 0
37 51 108 137 -148 0
37 51 108 -137 148 0
37 51 -108 137 148 0
37 51 -108 -137 -148 0
37 -51 108 137 148 0
37 -51 108 -137 -148 0
37 -51 -108 137 -148 0
37 -51 -108 -137 148 0
-37 51 108 137 148 0
-37 51 108 -137 -148 0
-37 51 -108 137 -148 0
-37 51 -108 -137 148 0
-37 -51 108 137 -148 0
-37 -51 108 -137 148 0
-37 -51 -108 137 148 0
-37 -51 -108 -137 -148 0
74 129 149 150 -151 0
74 129 149 -150 151 0
74 129 -149 150 151 0
74 129 -149 -150 -151 0
74 -129 149 150 151 0
74 -129 149 -150 -151 0
74 -129 -149 150 -151 0
74 -129 -149 -150 151 0
-74 129 149 150 151 0
-74 129 149 -150 -151 0
-74 129 -149 150 -151 0
-74 129 -149 -150 151 0
-74 -129 149 150 -151 0
-74 -129 149 -150 151 0
-74 -129 -149 150 151 0
-74 -129 -149 -150 -151 0
17 28 64 85 152 0
17 28 64 -85 -152 0
17 28 -64 85 -152 0
17 28 -64 -85 152 0
17 -28 64 85 -152 0
17 -28 64 -85 152 0
17 -28 -64 85 152 0
17 -28 -64 -85 -152 0
-17 28 64 85 -152 0
-17 28 64 -85 152 0
-17 28 -64 85 152 0
-17 28 -64 -85 -152 0
-17 -28 64 85 152 0
-17 -28 64 -85 -152 0
-17 -28 -64 85 -152 0
-17 -28 -64 -85 152 0
52 66 130 146 -153 0
52 66 130 -146 153 0
52 66 -130 146 153 0
52 66 -130 -146 -153 0
52 -66 130 146 153 0
52 -66 130 -146 -153 0
52 -66 -130 146 -153 0
52 -66 -130 -146 153 0
-52 66 130 146 153 0
-52 66 130 -146 -153 0
-52 66 -130 146 -153 0
-52 66 -130 -146 153 0
-52 -66 130 146 -153 0
-52 -66 130 -146 153 0
-52 -66 -130 146 153 0
-52 -66 -130 -146 -153 0
4 70 111 141 154 0
4 70 111 -141 -154 0
4 70 -111 141 -154 0
4 70 -111 -141 154 0
4 -70 111 141 -154 0
4 -70 111 -141 154 0
4 -70 -111 141 154 0
4 -70 -111 -141 -154 0
-4 70 111 141 -154 0
-4 70 111 -141 154 0
-4 70 -111 141 154 0
-4 70 -111 -141 -154 0
-4 -70 111 141 154 0
-4 -70 111 -141 -154 0
-4 -70 -111 141 -154 0
-4 -70 -111 -141 154 0
60 94 109 112 155 0
60 94 109 -112 -155 0
60 94 -109 112 -155 0
60 94 -109 -112 155 0
60 -94 109 112 -155 0
60 -94 109 -112 155 0
60 -94 -109 112 155 0
60 -94 -109 -112 -155 0
-60 94 109 112 -155 0
-60 94 109 -112 155 0
-60 94 -109 112 155 0
-60 94 -109 -112 -155 0
-60 -94 109 112 155 0
-60 -94 109 -112 -155 0
-60 -94 -109 112 -155 0
-60 -94 -109 -112 155 0
48 103 114 156 157 0
48 103 114 -156 -157 0
48 103 -114 156 -157 0
48 103 -114 -156 157 0
48 -103 114 156 -157 0
48 -103 114 -156 157 0
48 -103 -114 156 157 0
48 -103 -114 -156 -157 0
-48 103 114 156 -157 0
-48 103 114 -156 157 0
-48 103 -114 156 157 0
-48 103 -114 -156 -157 0
-48 -103 114 156 157 0
-48 -103 114 -156 -157 0
-48 -103 -114 156 -157 0
-48 -103 -114 -156 157 0
41 75 77 91 -156 0
41 75 77 -91 156 0
41 75 -77 91 156 0
41 75 -77 -91 -156 0
41 -75 77 91 156 0
41 -75 77 -91 -156 0
41 -75 -77 91 -156 0
41 -75 -77 -91 156 0
-41 75 77 91 156 0
-41 75 77 -91 -156 0
-41 75 -77 91 -156 0
-41 75 -77 -91 156 0
-41 -75 77 91 -156 0
-41 -75 77 -91 156 0
-41 -75 -77 91 156 0
-41 -75 -77 -91 -156 0
81 110 158 159 160 0
81 110 158 -159 -160 0
81 110 -158 159 -160 0
81 110 -158 -159 160 0
81 -110 158 159 -160 0
81 -110 158 -159 160 0
81 -110 -158 159 160 0
81 -110 -158 -159 -160 0
-81 110 158 159 -160 0
-81 110 158 -159 160 0
-81 110 -158 159 160 0
-81 110 -158 -159 -160 0
-81 -110 158 159 160 0
-81 -110 158 -159 -160 0
-81 -110 -158 159 -160 0
-81 -110 -158 -159 160 0
161 162 163 164 -165 0
161 162 163 -164 165 0
161 162 -163 164 165 0
161 162 -163 -164 -165 0
161 -162 163 164 165 0
161 -162 163 -164 -165 0
161 -162 -163 164 -165 0
161 -162 -163 -164 165 0
-161 162 163 164 165 0
-161 162 163 -164 -165 0
-161 162 -163 164 -165 0
-161 162 -163 -164 165 0
-161 -162 163 164 -165 0
-161 -162 163 -164 165 0
-161 -162 -163 164 165 0
-161 -162 -163 -164 -165 0
18 104 138 166 -167 0
18 104 138 -166 167 0
18 104 -138 166 167 0
18 104 -138 -166 -167 0
18 -104 138 166 167 0
18 -104 138 -166 -167 0
18 -104 -138 166 -167 0
18 -104 -138 -166 167 0
-18 104 138 166 167 0
-18 104 138 -166 -167 0
-18 104 -138 166 -167 0
-18 104 -138 -166 167 0
-18 -104 138 166 -167 0
-18 -104 138 -166 167 0
-18 -104 -138 166 167 0
-18 -104 -138 -166 -167 0
82 115 121 168 169 0
82 115 121 -168 -169 0
82 115 -121 168 -169 0
82 115 -121 -168 169 0
82 -115 121 168 -169 0
82 -115 121 -168 169 0
82 -115 -121 168 169 0
82 -115 -121 -168 -169 0
-82 115 121 168 -169 0
-82 115 121 -168 169 0
-82 115 -121 168 169 0
-82 115 -121 -168 -169 0
-82 -115 121 168 169 0
-82 -115 121 -168 -169 0
-82 -115 -121 168 -169 0
-82 -115 -121 -168 169 0
105 127 149 158 -170 0
105 127 149 -158 170 0
105 127 -149 158 170 0
105 127 -149 -158 -170 0
105 -127 149 158 170 0
105 -127 149 -158 -170 0
105 -127 -149 158 -170 0
105 -127 -149 -158 170 0
-105 127 149 158 170 0
-105 127 149 -158 -170 0
-105 127 -149 158 -170 0
-105 127 -149 -158 170 0
-105 -127 149 158 -170 0
-105 -127 149 -158 170 0
-105 -127 -149 158 170 0
-105 -127 -149 -158 -170 0
19 29 92 101 -166 0
19 29 92 -101 166 0
19 29 -92 101 166 0
19 29 -92 -101 -166 0
19 -29 92 101 166 0
19 -29 92 -101 -166 0
19 -29 -92 101 -166 0
19 -29 -92 -101 166 0
-19 29 92 101 166 0
-19 29 92 -101 -166 0
-19 29 -92 101 -166 0
-19 29 -92 -101 166 0
-19 -29 92 101 -166 0
-19 -29 92 -101 166 0
-19 -29 -92 101 166 0
-19 -29 -92 -101 -166 0
56 71 107 143 -150 0
56 71 107 -143 150 0
56 71 -107 143 150 0
56 71 -107 -143 -150 0
56 -71 107 143 150 0
56 -71 107 -143 -150 0
56 -71 -107 143 -150 0
56 -71 -107 -143 150 0
-56 71 107 143 150 0
-56 71 107 -143 -150 0
-56 71 -107 143 -150 0
-56 71 -107 -143 150 0
-56 -71 107 143 -150 0
-56 -71 107 -143 150 0
-56 -71 -107 143 150 0
-56 -71 -107 -143 -150 0
72 78 98 135 -171 0
72 78 98 -135 171 0
72 78 -98 135 171 0
72 78 -98 -135 -171 0
72 -78 98 135 171 0
72 -78 98 -135 -171 0
72 -78 -98 135 -171 0
72 -78 -98 -135 171 0
-72 78 98 135 171 0
-72 78 98 -135 -171 0
-72 78 -98 135 -171 0
-72 78 -98 -135 171 0
-72 -78 98 135 -171 0
-72 -78 98 -135 171 0
-72 -78 -98 135 171 0
-72 -78 -98 -135 -171 0
8 86 95 136 161 0
8 86 95 -136 -161 0
8 86 -95 136 -161 0
8 86 -95 -136 161 0
8 -86 95 136 -161 0
8 -86 95 -136 161 0
8 -86 -95 136 161 0
8 -86 -95 -136 -161 0
-8 86 95 136 -161 0
-8 86 95 -136 161 0
-8 86 -95 136 161 0
-8 86 -95 -136 -161 0
-8 -86 95 136 161 0
-8 -86 95 -136 -161 0
-8 -86 -95 136 -161 0
-8 -86 -95 -136 161 0
15 23 122 128 -147 0
15 23 122 -128 147 0
15 23 -122 128 147 0
15 23 -122 -128 -147 0
15 -23 122 128 147 0
15 -23 122 -128 -147 0
15 -23 -122 128 -147 0
15 -23 -122 -128 147 0
-15 23 122 128 147 0
-15 23 122 -128 -147 0
-15 23 -122 128 -147 0
-15 23 -122 -128 147 0
-15 -23 122 128 -147 0
-15 -23 122 -128 147 0
-15 -23 -122 128 147 0
-15 -23 -122 -128 -147 0
61 79 83 157 172 0
61 79 83 -157 -172 0
61 79 -83 157 -172 0
61 79 -83 -157 172 0
61 -79 83 157 -172 0
61 -79 83 -157 172 0
61 -79 -83 157 172 0
61 -79 -83 -157 -172 0
-61 79 83 157 -172 0
-61 79 83 -157 172 0
-61 79 -83 157 172 0
-61 79 -83 -157 -172 0
-61 -79 83 157 172 0
-61 -79 83 -157 -172 0
-61 -79 -83 157 -172 0
-61 -79 -83 -157 172 0
132 151 155 162 170 0
132 151 155 -162 -170 0
132 151 -155 162 -170 0
132 151 -155 -162 170 0
132 -151 155 162 -170 0
132 -151 155 -162 170 0
132 -151 -155 162 170 0
132 -151 -155 -162 -170 0
-132 151 155 162 -170 0
-132 151 155 -162 170 0
-132 151 -155 162 170 0
-132 151 -155 -162 -170 0
-132 -151 155 162 170 0
-132 -151 155 -162 -170 0
-132 -151 -155 162 -170 0
-132 -151 -155 -162 170 0
57 148 167 171 -173 0
57 148 167 -171 173 0
57 148 -167 171 173 0
57 148 -167 -171 -173 0
57 -148 167 171 173 0
57 -148 167 -171 -173 0
57 -148 -167 171 -173 0
57 -148 -167 -171 173 0
-57 148 167 171 173 0
-57 148 167 -171 -173 0
-57 148 -167 171 -173 0
-57 148 -167 -171 173 0
-57 -148 167 171 -173 0
-57 -148 167 -171 173 0
-57 -148 -167 171 173 0
-57 -148 -167 -171 -173 0
5 24 62 65 163 0
5 24 62 -65 -163 0
5 24 -62 65 -163 0
5 24 -62 -65 163 0
5 -24 62 65 -163 0
5 -24 62 -65 163 0
5 -24 -62 65 163 0
5 -24 -62 -65 -163 0
-5 24 62 65 -163 0
-5 24 62 -65 163 0
-5 24 -62 65 163 0
-5 24 -62 -65 -163 0
-5 -24 62 65 163 0
-5 -24 62 -65 -163 0
-5 -24 -62 65 -163 0
-5 -24 -62 -65 163 0
9 123 154 159 174 0
9 123 154 -159 -174 0
9 123 -154 159 -174 0
9 123 -154 -159 174 0
9 -123 154 159 -174 0
9 -123 154 -159 174 0
9 -123 -154 159 174 0
9 -123 -154 -159 -174 0
-9 123 154 159 -174 0
-9 123 154 -159 174 0
-9 123 -154 159 174 0
-9 123 -154 -159 -174 0
-9 -123 154 159 174 0
-9 -123 154 -159 -174 0
-9 -123 -154 159 -174 0
-9 -123 -154 -159 174 0
67 87 116 168 175 0
67 87 116 -168 -175 0
67 87 -116 168 -175 0
67 87 -116 -168 175 0
67 -87 116 168 -175 0
67 -87 116 -168 175 0
67 -87 -116 168 175 0
67 -87 -116 -168 -175 0
-67 87 116 168 -175 0
-67 87 116 -168 175 0
-67 87 -116 168 175 0
-67 87 -116 -168 -175 0
-67 -87 116 168 175 0
-67 -87 116 -168 -175 0
-67 -87 -116 168 -175 0
-67 -87 -116 -168 175 0
99 133 139 174 -175 0
99 133 139 -174 175 0
99 133 -139 174 175 0
99 133 -139 -174 -175 0
99 -133 139 174 175 0
99 -133 139 -174 -175 0
99 -133 -139 174 -175 0
99 -133 -139 -174 175 0
-99 133 139 174 175 0
-99 133 139 -174 -175 0
-99 133 -139 174 -175 0
-99 133 -139 -174 175 0
-99 -133 139 174 -175 0
-99 -133 139 -174 175 0
-99 -133 -139 174 175 0
-99 -133 -139 -174 -175 0
117 144 152 153 -164 0
117 144 152 -153 164 0
117 144 -152 153 164 0
117 144 -152 -153 -164 0
117 -144 152 153 164 0
117 -144 152 -153 -164 0
117 -144 -152 153 -164 0
117 -144 -152 -153 164 0
-117 144 152 153 164 0
-117 144 152 -153 -164 0
-117 144 -152 153 -164 0
-117 144 -152 -153 164 0
-117 -144 152 153 -164 0
-117 -144 152 -153 164 0
-117 -144 -152 153 164 0
-117 -144 -152 -153 -164 0
88 96 113 142 -165 0
88 96 113 -142 165 0
88 96 -113 142 165 0
88 96 -113 -142 -165 0
88 -96 113 142 165 0
88 -96 113 -142 -165 0
88 -96 -113 142 -165 0
88 -96 -113 -142 165 0
-88 96 113 142 165 0
-88 96 113 -142 -165 0
-88 96 -113 142 -165 0
-88 96 -113 -142 165 0
-88 -96 113 142 -165 0
-88 -96 113 -142 165 0
-88 -96 -113 142 165 0
-88 -96 -113 -142 -165 0
118 131 134 172 173 0
118 131 134 -172 -173 0
118 131 -134 172 -173 0
118 131 -134 -172 173 0
118 -131 134 172 -173 0
118 -131 134 -172 173 0
118 -131 -134 172 173 0
118 -131 -134 -172 -173 0
-118 131 134 172 -173 0
-118 131 134 -172 173 0
-118 131 -134 172 173 0
-118 131 -134 -172 -173 0
-118 -131 134 172 173 0
-118 -131 134 -172 -173 0
-118 -131 -134 172 -173 0
-118 -131 -134 -172 173 0
10 102 145 160 169 0
10 102 145 -160 -169 0
10 102 -145 160 -169 0
10 102 -145 -160 169 0
10 -102 145 160 -169 0
10 -102 145 -160 169 0
10 -102 -145 160 169 0
10 -102 -145 -160 -169 0
-10 102 145 160 -169 0
-10 102 145 -160 169 0
-10 102 -145 160 169 0
-10 102 -145 -160 -169 0
-10 -102 145 160 169 0
-10 -102 145 -160 -169 0
-10 -102 -145 160 -169 0
-10 -102 -145 -160 169 0
